001 002 003 003 004 004 003 004 002 002 003 005 002 006 006 008 007 006 007 004 007 007 009 015 010 009 016 016 018 025 014
001 002 003 003 004 004 004 004 002 003 003 003 004 004 004 007 007 009 011 004 007 009 008 012 013 019 017 017 015 020 024
002 003 003 005 004 006 004 004 002 003 005 003 003 005 005 008 012 012 018 010 009 010 009 009 013 014 016 019 014 014 017
002 002 004 005 004 004 003 002 003 003 002 003 003 006 004 007 006 012 014 010 008 013 008 015 007 010 014 012 010 010 011
002 002 004 003 004 004 002 003 002 004 004 004 004 003 004 006 008 011 010 014 010 010 010 017 013 014 011 011 012 010 008
002 003 004 003 003 002 002 002 002 001 003 004 005 005 004 005 007 009 009 014 010 007 010 010 014 008 008 009 008 009 005
002 002 002 003 003 002 001 001 002 003 003 004 005 005 002 004 007 008 009 009 013 008 010 007 009 007 007 013 005 006 006
002 002 002 002 001 001 002 001 002 001 002 004 004 004 004 004 003 005 009 008 009 008 005 004 007 009 010 007 004 004 005
002 002 002 002 002 001 001 001 001 002 002 004 003 002 003 004 003 004 011 007 008 006 008 005 006 006 003 005 004 003 004
001 002 001 001 001 001 001 001 000 001 001 003 002 001 004 004 004 007 006 007 008 004 002 004 003 006 004 004 004 003 003
001 001 001 001 001 001 001 001 001 001 002 002 001 002 003 003 003 006 008 007 006 005 003 004 003 005 004 004 003 003 003
001 001 001 001 001 001 001 001 001 000 001 001 000 001 002 002 002 002 004 006 005 004 004 003 003 001 002 003 003 002 003
000 001 001 001 001 000 001 001 001 001 001 001 001 001 001 001 002 002 003 004 004 007 004 003 002 002 001 002 002 002 001
000 000 000 000 001 001 001 001 001 001 001 001 000 001 001 001 002 002 002 002 002 002 003 002 001 002 002 001 002 002 001
000 000 000 001 001 001 001 001 001 001 000 001 001 001 001 001 001 001 001 002 002 002 002 002 002 002 001 002 002 001 001
000 000 000 001 001 001 001 001 000 001 001 001 001 001 001 000 001 000 001 002 001 003 003 002 002 002 001 001 002 001 001
000 000 001 001 001 001 000 001 000 001 001 001 001 001 001 001 001 000 001 002 002 003 002 002 003 001 001 001 001 001 000
000 000 000 001 001 000 000 000 001 001 001 000 001 002 001 001 001 000 001 001 002 002 001 002 002 001 001 001 001 001 000
001 000 001 001 001 001 001 001 001 001 001 001 001 001 001 001 001 000 000 001 002 001 001 001 002 002 002 001 001 001 000
000 000 000 001 001 001 001 001 001 002 001 001 001 001 001 002 001 000 000 000 001 001 002 001 001 002 002 001 001 001 000
000 000 001 001 001 001 001 000 001 001 001 000 001 001 000 001 000 000 001 001 000 001 001 001 001 001 001 -99 -99 -99 -99
000 000 001 001 001 001 001 000 000 000 001 000 000 000 000 000 000 000 000 000 000 000 000 001 001 -99 -99 -99 -99 -99 -99
000 000 000 001 001 001 001 001 000 000 000 000 000 000 000 000 000 000 000 000 000 000 000 001 001 -99 -99 -99 -99 -99 -99
000 000 001 001 001 000 001 000 000 001 000 000 000 000 000 000 000 000 000 000 000 001 001 001 001 -99 -99 -99 -99 -99 -99
000 000 000 001 001 000 000 000 000 000 000 000 000 000 000 000 000 001 001 001 001 002 002 001 001 -99 -99 -99 -99 -99 000
000 000 000 001 000 000 000 001 000 000 000 000 000 000 000 000 000 002 002 002 001 002 002 -99 -99 -99 -99 -99 -99 001 000
000 000 000 000 000 000 000 000 001 000 000 000 000 000 000 001 001 002 002 002 002 003 004 004 004 -99 -99 -99 -99 001 000
000 000 000 000 000 001 000 000 001 000 000 000 000 000 001 001 001 001 002 002 004 004 004 -99 -99 -99 -99 -99 -99 001 001
000 000 000 000 000 000 000 000 000 000 000 000 000 000 001 002 001 001 001 002 005 004 006 008 006 006 003 003 001 001 001
000 000 000 000 000 000 000 001 000 000 000 000 000 000 000 002 002 001 001 002 003 006 006 006 006 006 004 003 001 001 003
000 000 000 000 000 000 000 000 000 000 000 000 000 000 001 001 002 002 001 001 002 004 005 005 006 009 007 002 003 004 007
000 000 000 000 000 000 000 000 000 000 000 000 000 000 000 000 001 001 001 001 002 002 004 005 009 013 011 005 003 007 008
000 000 000 000 000 000 000 000 000 000 000 000 000 001 000 000 001 001 001 001 001 002 004 007 013 012 012 010 004 007 010
000 000 000 000 000 000 000 000 000 000 000 000 000 000 000 001 001 001 001 001 001 002 003 006 015 014 037 028 006 007 006
000 000 000 000 000 000 000 000 000 000 000 000 000 000 000 000 000 000 000 000 002 002 002 003 005 010 026 022 010 007 005
000 000 000 000 000 000 000 000 000 000 000 001 000 000 000 000 000 000 000 000 001 003 003 001 003 005 010 011 009 012 006
000 000 000 000 000 000 000 000 000 000 000 000 000 000 000 000 000 000 000 000 001 001 002 002 002 002 006 007 007 019 005
000 -99 -99 000 000 000 000 000 000 000 000 000 001 000 000 000 000 000 000 000 001 001 002 001 002 005 004 003 004 004 003
000 -99 000 000 000 000 -99 -99 -99 000 000 001 001 000 000 000 000 000 000 000 001 001 001 002 002 003 004 002 003 003 003
000 000 000 000 000 -99 -99 -99 -99 000 000 001 001 000 000 000 000 000 000 000 001 001 001 002 003 003 002 002 002 003 005
000 000 000 000 000 -99 -99 -99 -99 000 000 001 000 000 000 000 000 000 000 000 001 001 001 001 001 002 002 001 002 004 005
000 000 -99 -99 -99 -99 -99 -99 -99 000 000 000 000 000 000 000 000 000 000 001 001 001 001 000 001 001 001 002 003 004 004
000 -99 -99 -99 -99 000 -99 -99 -99 000 000 000 000 000 000 000 000 000 000 001 000 001 001 001 001 001 001 001 004 002 003
-99 -99 -99 -99 -99 000 -99 -99 -99 000 000 000 000 000 000 000 000 000 001 000 000 000 000 000 001 001 001 002 002 002 003
-99 -99 -99 -99 000 000 000 -99 -99 000 000 000 000 000 000 000 001 001 001 000 000 000 000 000 000 000 000 002 002 -99 003
-99 -99 -99 000 000 -99 -99 -99 -99 000 000 000 000 000 000 001 001 000 000 000 000 000 000 000 000 000 000 001 -99 002 002
-99 -99 -99 000 000 -99 -99 -99 -99 -99 000 000 000 000 000 000 000 000 000 000 000 000 000 000 000 000 000 -99 000 001 001
-99 -99 -99 -99 -99 -99 -99 -99 -99 -99 -99 000 000 000 000 000 000 000 000 000 000 000 000 000 000 000 -99 -99 000 001 000
-99 -99 -99 -99 -99 -99 -99 -99 -99 -99 -99 -99 -99 000 -99 -99 -99 000 000 000 000 000 000 -99 000 000 -99 000 000 000 000
-99 -99 -99 -99 -99 -99 -99 -99 -99 -99 -99 -99 -99 -99 -99 -99 -99 000 000 000 000 000 -99 -99 -99 000 000 000 000 000 000
-99 -99 -99 -99 -99 -99 -99 -99 -99 -99 -99 -99 -99 -99 -99 -99 -99 000 000 000 000 000 -99 -99 -99 000 -99 -99 000 000 000
-99 -99 -99 -99 -99 -99 -99 -99 -99 -99 -99 -99 -99 -99 -99 -99 000 000 000 000 000 -99 -99 -99 -99 000 -99 -99 000 -99 000
-99 -99 -99 -99 -99 -99 -99 -99 -99 -99 -99 -99 -99 -99 -99 -99 000 000 000 000 000 000 -99 -99 000 -99 -99 -99 -99 -99 000
-99 -99 -99 -99 -99 -99 -99 -99 -99 -99 -99 -99 -99 -99 -99 -99 000 000 000 000 000 000 -99 -99 -99 -99 -99 -99 -99 -99 -99
-99 -99 -99 -99 -99 -99 -99 -99 -99 -99 -99 -99 -99 -99 -99 -99 000 000 -99 -99 000 -99 -99 -99 -99 -99 -99 -99 -99 -99 -99
